c *********************************
c * Circuit generated by BenCGen
c *
c * CarrySkipAdder_81_81_81_InOut_G4T
c *
c * Ports with 1 gate(s): 24
c * Ports with 2 gate(s): 448
c * Ports with 4 gate(s): 20
c * Total gates: 492
c *********************************
p cnf 654 1654
1 246 0
-1 -246 0
1 -245 0
246 -245 0
-1 -246 245 0
1 82 -249 0
-1 82 249 0
1 -82 249 0
-1 -82 -249 0
249 245 -163 0
-249 245 163 0
249 -245 163 0
-249 -245 -163 0
245 -250 0
249 -250 0
-245 -249 250 0
82 -251 0
1 -251 0
-82 -1 251 0
-250 248 0
-251 248 0
250 251 -248 0
2 83 -253 0
-2 83 253 0
2 -83 253 0
-2 -83 -253 0
253 248 -164 0
-253 248 164 0
253 -248 164 0
-253 -248 -164 0
248 -254 0
253 -254 0
-248 -253 254 0
83 -255 0
2 -255 0
-83 -2 255 0
-254 252 0
-255 252 0
254 255 -252 0
3 84 -257 0
-3 84 257 0
3 -84 257 0
-3 -84 -257 0
257 252 -165 0
-257 252 165 0
257 -252 165 0
-257 -252 -165 0
252 -258 0
257 -258 0
-252 -257 258 0
84 -259 0
3 -259 0
-84 -3 259 0
-258 256 0
-259 256 0
258 259 -256 0
4 85 -260 0
-4 85 260 0
4 -85 260 0
-4 -85 -260 0
260 256 -166 0
-260 256 166 0
260 -256 166 0
-260 -256 -166 0
256 -261 0
260 -261 0
-256 -260 261 0
85 -262 0
4 -262 0
-85 -4 262 0
-261 247 0
-262 247 0
261 262 -247 0
249 -263 0
253 -263 0
257 -263 0
260 -263 0
-249 -253 -257 -260 263 0
262 -264 0
-262 264 0
245 -265 0
263 -265 0
-245 -263 265 0
-265 266 0
-247 266 0
265 247 -266 0
5 86 -269 0
-5 86 269 0
5 -86 269 0
-5 -86 -269 0
269 266 -167 0
-269 266 167 0
269 -266 167 0
-269 -266 -167 0
266 -270 0
269 -270 0
-266 -269 270 0
86 -271 0
5 -271 0
-86 -5 271 0
-270 268 0
-271 268 0
270 271 -268 0
6 87 -273 0
-6 87 273 0
6 -87 273 0
-6 -87 -273 0
273 268 -168 0
-273 268 168 0
273 -268 168 0
-273 -268 -168 0
268 -274 0
273 -274 0
-268 -273 274 0
87 -275 0
6 -275 0
-87 -6 275 0
-274 272 0
-275 272 0
274 275 -272 0
7 88 -277 0
-7 88 277 0
7 -88 277 0
-7 -88 -277 0
277 272 -169 0
-277 272 169 0
277 -272 169 0
-277 -272 -169 0
272 -278 0
277 -278 0
-272 -277 278 0
88 -279 0
7 -279 0
-88 -7 279 0
-278 276 0
-279 276 0
278 279 -276 0
8 89 -280 0
-8 89 280 0
8 -89 280 0
-8 -89 -280 0
280 276 -170 0
-280 276 170 0
280 -276 170 0
-280 -276 -170 0
276 -281 0
280 -281 0
-276 -280 281 0
89 -282 0
8 -282 0
-89 -8 282 0
-281 267 0
-282 267 0
281 282 -267 0
269 -283 0
273 -283 0
277 -283 0
280 -283 0
-269 -273 -277 -280 283 0
282 -284 0
-282 284 0
266 -285 0
283 -285 0
-266 -283 285 0
-285 286 0
-267 286 0
285 267 -286 0
9 90 -289 0
-9 90 289 0
9 -90 289 0
-9 -90 -289 0
289 286 -171 0
-289 286 171 0
289 -286 171 0
-289 -286 -171 0
286 -290 0
289 -290 0
-286 -289 290 0
90 -291 0
9 -291 0
-90 -9 291 0
-290 288 0
-291 288 0
290 291 -288 0
10 91 -293 0
-10 91 293 0
10 -91 293 0
-10 -91 -293 0
293 288 -172 0
-293 288 172 0
293 -288 172 0
-293 -288 -172 0
288 -294 0
293 -294 0
-288 -293 294 0
91 -295 0
10 -295 0
-91 -10 295 0
-294 292 0
-295 292 0
294 295 -292 0
11 92 -297 0
-11 92 297 0
11 -92 297 0
-11 -92 -297 0
297 292 -173 0
-297 292 173 0
297 -292 173 0
-297 -292 -173 0
292 -298 0
297 -298 0
-292 -297 298 0
92 -299 0
11 -299 0
-92 -11 299 0
-298 296 0
-299 296 0
298 299 -296 0
12 93 -300 0
-12 93 300 0
12 -93 300 0
-12 -93 -300 0
300 296 -174 0
-300 296 174 0
300 -296 174 0
-300 -296 -174 0
296 -301 0
300 -301 0
-296 -300 301 0
93 -302 0
12 -302 0
-93 -12 302 0
-301 287 0
-302 287 0
301 302 -287 0
289 -303 0
293 -303 0
297 -303 0
300 -303 0
-289 -293 -297 -300 303 0
302 -304 0
-302 304 0
286 -305 0
303 -305 0
-286 -303 305 0
-305 306 0
-287 306 0
305 287 -306 0
13 94 -309 0
-13 94 309 0
13 -94 309 0
-13 -94 -309 0
309 306 -175 0
-309 306 175 0
309 -306 175 0
-309 -306 -175 0
306 -310 0
309 -310 0
-306 -309 310 0
94 -311 0
13 -311 0
-94 -13 311 0
-310 308 0
-311 308 0
310 311 -308 0
14 95 -313 0
-14 95 313 0
14 -95 313 0
-14 -95 -313 0
313 308 -176 0
-313 308 176 0
313 -308 176 0
-313 -308 -176 0
308 -314 0
313 -314 0
-308 -313 314 0
95 -315 0
14 -315 0
-95 -14 315 0
-314 312 0
-315 312 0
314 315 -312 0
15 96 -317 0
-15 96 317 0
15 -96 317 0
-15 -96 -317 0
317 312 -177 0
-317 312 177 0
317 -312 177 0
-317 -312 -177 0
312 -318 0
317 -318 0
-312 -317 318 0
96 -319 0
15 -319 0
-96 -15 319 0
-318 316 0
-319 316 0
318 319 -316 0
16 97 -320 0
-16 97 320 0
16 -97 320 0
-16 -97 -320 0
320 316 -178 0
-320 316 178 0
320 -316 178 0
-320 -316 -178 0
316 -321 0
320 -321 0
-316 -320 321 0
97 -322 0
16 -322 0
-97 -16 322 0
-321 307 0
-322 307 0
321 322 -307 0
309 -323 0
313 -323 0
317 -323 0
320 -323 0
-309 -313 -317 -320 323 0
322 -324 0
-322 324 0
306 -325 0
323 -325 0
-306 -323 325 0
-325 326 0
-307 326 0
325 307 -326 0
17 98 -329 0
-17 98 329 0
17 -98 329 0
-17 -98 -329 0
329 326 -179 0
-329 326 179 0
329 -326 179 0
-329 -326 -179 0
326 -330 0
329 -330 0
-326 -329 330 0
98 -331 0
17 -331 0
-98 -17 331 0
-330 328 0
-331 328 0
330 331 -328 0
18 99 -333 0
-18 99 333 0
18 -99 333 0
-18 -99 -333 0
333 328 -180 0
-333 328 180 0
333 -328 180 0
-333 -328 -180 0
328 -334 0
333 -334 0
-328 -333 334 0
99 -335 0
18 -335 0
-99 -18 335 0
-334 332 0
-335 332 0
334 335 -332 0
19 100 -337 0
-19 100 337 0
19 -100 337 0
-19 -100 -337 0
337 332 -181 0
-337 332 181 0
337 -332 181 0
-337 -332 -181 0
332 -338 0
337 -338 0
-332 -337 338 0
100 -339 0
19 -339 0
-100 -19 339 0
-338 336 0
-339 336 0
338 339 -336 0
20 101 -340 0
-20 101 340 0
20 -101 340 0
-20 -101 -340 0
340 336 -182 0
-340 336 182 0
340 -336 182 0
-340 -336 -182 0
336 -341 0
340 -341 0
-336 -340 341 0
101 -342 0
20 -342 0
-101 -20 342 0
-341 327 0
-342 327 0
341 342 -327 0
329 -343 0
333 -343 0
337 -343 0
340 -343 0
-329 -333 -337 -340 343 0
342 -344 0
-342 344 0
326 -345 0
343 -345 0
-326 -343 345 0
-345 346 0
-327 346 0
345 327 -346 0
21 102 -349 0
-21 102 349 0
21 -102 349 0
-21 -102 -349 0
349 346 -183 0
-349 346 183 0
349 -346 183 0
-349 -346 -183 0
346 -350 0
349 -350 0
-346 -349 350 0
102 -351 0
21 -351 0
-102 -21 351 0
-350 348 0
-351 348 0
350 351 -348 0
22 103 -353 0
-22 103 353 0
22 -103 353 0
-22 -103 -353 0
353 348 -184 0
-353 348 184 0
353 -348 184 0
-353 -348 -184 0
348 -354 0
353 -354 0
-348 -353 354 0
103 -355 0
22 -355 0
-103 -22 355 0
-354 352 0
-355 352 0
354 355 -352 0
23 104 -357 0
-23 104 357 0
23 -104 357 0
-23 -104 -357 0
357 352 -185 0
-357 352 185 0
357 -352 185 0
-357 -352 -185 0
352 -358 0
357 -358 0
-352 -357 358 0
104 -359 0
23 -359 0
-104 -23 359 0
-358 356 0
-359 356 0
358 359 -356 0
24 105 -360 0
-24 105 360 0
24 -105 360 0
-24 -105 -360 0
360 356 -186 0
-360 356 186 0
360 -356 186 0
-360 -356 -186 0
356 -361 0
360 -361 0
-356 -360 361 0
105 -362 0
24 -362 0
-105 -24 362 0
-361 347 0
-362 347 0
361 362 -347 0
349 -363 0
353 -363 0
357 -363 0
360 -363 0
-349 -353 -357 -360 363 0
362 -364 0
-362 364 0
346 -365 0
363 -365 0
-346 -363 365 0
-365 366 0
-347 366 0
365 347 -366 0
25 106 -369 0
-25 106 369 0
25 -106 369 0
-25 -106 -369 0
369 366 -187 0
-369 366 187 0
369 -366 187 0
-369 -366 -187 0
366 -370 0
369 -370 0
-366 -369 370 0
106 -371 0
25 -371 0
-106 -25 371 0
-370 368 0
-371 368 0
370 371 -368 0
26 107 -373 0
-26 107 373 0
26 -107 373 0
-26 -107 -373 0
373 368 -188 0
-373 368 188 0
373 -368 188 0
-373 -368 -188 0
368 -374 0
373 -374 0
-368 -373 374 0
107 -375 0
26 -375 0
-107 -26 375 0
-374 372 0
-375 372 0
374 375 -372 0
27 108 -377 0
-27 108 377 0
27 -108 377 0
-27 -108 -377 0
377 372 -189 0
-377 372 189 0
377 -372 189 0
-377 -372 -189 0
372 -378 0
377 -378 0
-372 -377 378 0
108 -379 0
27 -379 0
-108 -27 379 0
-378 376 0
-379 376 0
378 379 -376 0
28 109 -380 0
-28 109 380 0
28 -109 380 0
-28 -109 -380 0
380 376 -190 0
-380 376 190 0
380 -376 190 0
-380 -376 -190 0
376 -381 0
380 -381 0
-376 -380 381 0
109 -382 0
28 -382 0
-109 -28 382 0
-381 367 0
-382 367 0
381 382 -367 0
369 -383 0
373 -383 0
377 -383 0
380 -383 0
-369 -373 -377 -380 383 0
382 -384 0
-382 384 0
366 -385 0
383 -385 0
-366 -383 385 0
-385 386 0
-367 386 0
385 367 -386 0
29 110 -389 0
-29 110 389 0
29 -110 389 0
-29 -110 -389 0
389 386 -191 0
-389 386 191 0
389 -386 191 0
-389 -386 -191 0
386 -390 0
389 -390 0
-386 -389 390 0
110 -391 0
29 -391 0
-110 -29 391 0
-390 388 0
-391 388 0
390 391 -388 0
30 111 -393 0
-30 111 393 0
30 -111 393 0
-30 -111 -393 0
393 388 -192 0
-393 388 192 0
393 -388 192 0
-393 -388 -192 0
388 -394 0
393 -394 0
-388 -393 394 0
111 -395 0
30 -395 0
-111 -30 395 0
-394 392 0
-395 392 0
394 395 -392 0
31 112 -397 0
-31 112 397 0
31 -112 397 0
-31 -112 -397 0
397 392 -193 0
-397 392 193 0
397 -392 193 0
-397 -392 -193 0
392 -398 0
397 -398 0
-392 -397 398 0
112 -399 0
31 -399 0
-112 -31 399 0
-398 396 0
-399 396 0
398 399 -396 0
32 113 -400 0
-32 113 400 0
32 -113 400 0
-32 -113 -400 0
400 396 -194 0
-400 396 194 0
400 -396 194 0
-400 -396 -194 0
396 -401 0
400 -401 0
-396 -400 401 0
113 -402 0
32 -402 0
-113 -32 402 0
-401 387 0
-402 387 0
401 402 -387 0
389 -403 0
393 -403 0
397 -403 0
400 -403 0
-389 -393 -397 -400 403 0
402 -404 0
-402 404 0
386 -405 0
403 -405 0
-386 -403 405 0
-405 406 0
-387 406 0
405 387 -406 0
33 114 -409 0
-33 114 409 0
33 -114 409 0
-33 -114 -409 0
409 406 -195 0
-409 406 195 0
409 -406 195 0
-409 -406 -195 0
406 -410 0
409 -410 0
-406 -409 410 0
114 -411 0
33 -411 0
-114 -33 411 0
-410 408 0
-411 408 0
410 411 -408 0
34 115 -413 0
-34 115 413 0
34 -115 413 0
-34 -115 -413 0
413 408 -196 0
-413 408 196 0
413 -408 196 0
-413 -408 -196 0
408 -414 0
413 -414 0
-408 -413 414 0
115 -415 0
34 -415 0
-115 -34 415 0
-414 412 0
-415 412 0
414 415 -412 0
35 116 -417 0
-35 116 417 0
35 -116 417 0
-35 -116 -417 0
417 412 -197 0
-417 412 197 0
417 -412 197 0
-417 -412 -197 0
412 -418 0
417 -418 0
-412 -417 418 0
116 -419 0
35 -419 0
-116 -35 419 0
-418 416 0
-419 416 0
418 419 -416 0
36 117 -420 0
-36 117 420 0
36 -117 420 0
-36 -117 -420 0
420 416 -198 0
-420 416 198 0
420 -416 198 0
-420 -416 -198 0
416 -421 0
420 -421 0
-416 -420 421 0
117 -422 0
36 -422 0
-117 -36 422 0
-421 407 0
-422 407 0
421 422 -407 0
409 -423 0
413 -423 0
417 -423 0
420 -423 0
-409 -413 -417 -420 423 0
422 -424 0
-422 424 0
406 -425 0
423 -425 0
-406 -423 425 0
-425 426 0
-407 426 0
425 407 -426 0
37 118 -429 0
-37 118 429 0
37 -118 429 0
-37 -118 -429 0
429 426 -199 0
-429 426 199 0
429 -426 199 0
-429 -426 -199 0
426 -430 0
429 -430 0
-426 -429 430 0
118 -431 0
37 -431 0
-118 -37 431 0
-430 428 0
-431 428 0
430 431 -428 0
38 119 -433 0
-38 119 433 0
38 -119 433 0
-38 -119 -433 0
433 428 -200 0
-433 428 200 0
433 -428 200 0
-433 -428 -200 0
428 -434 0
433 -434 0
-428 -433 434 0
119 -435 0
38 -435 0
-119 -38 435 0
-434 432 0
-435 432 0
434 435 -432 0
39 120 -437 0
-39 120 437 0
39 -120 437 0
-39 -120 -437 0
437 432 -201 0
-437 432 201 0
437 -432 201 0
-437 -432 -201 0
432 -438 0
437 -438 0
-432 -437 438 0
120 -439 0
39 -439 0
-120 -39 439 0
-438 436 0
-439 436 0
438 439 -436 0
40 121 -440 0
-40 121 440 0
40 -121 440 0
-40 -121 -440 0
440 436 -202 0
-440 436 202 0
440 -436 202 0
-440 -436 -202 0
436 -441 0
440 -441 0
-436 -440 441 0
121 -442 0
40 -442 0
-121 -40 442 0
-441 427 0
-442 427 0
441 442 -427 0
429 -443 0
433 -443 0
437 -443 0
440 -443 0
-429 -433 -437 -440 443 0
442 -444 0
-442 444 0
426 -445 0
443 -445 0
-426 -443 445 0
-445 446 0
-427 446 0
445 427 -446 0
41 122 -449 0
-41 122 449 0
41 -122 449 0
-41 -122 -449 0
449 446 -203 0
-449 446 203 0
449 -446 203 0
-449 -446 -203 0
446 -450 0
449 -450 0
-446 -449 450 0
122 -451 0
41 -451 0
-122 -41 451 0
-450 448 0
-451 448 0
450 451 -448 0
42 123 -453 0
-42 123 453 0
42 -123 453 0
-42 -123 -453 0
453 448 -204 0
-453 448 204 0
453 -448 204 0
-453 -448 -204 0
448 -454 0
453 -454 0
-448 -453 454 0
123 -455 0
42 -455 0
-123 -42 455 0
-454 452 0
-455 452 0
454 455 -452 0
43 124 -457 0
-43 124 457 0
43 -124 457 0
-43 -124 -457 0
457 452 -205 0
-457 452 205 0
457 -452 205 0
-457 -452 -205 0
452 -458 0
457 -458 0
-452 -457 458 0
124 -459 0
43 -459 0
-124 -43 459 0
-458 456 0
-459 456 0
458 459 -456 0
44 125 -460 0
-44 125 460 0
44 -125 460 0
-44 -125 -460 0
460 456 -206 0
-460 456 206 0
460 -456 206 0
-460 -456 -206 0
456 -461 0
460 -461 0
-456 -460 461 0
125 -462 0
44 -462 0
-125 -44 462 0
-461 447 0
-462 447 0
461 462 -447 0
449 -463 0
453 -463 0
457 -463 0
460 -463 0
-449 -453 -457 -460 463 0
462 -464 0
-462 464 0
446 -465 0
463 -465 0
-446 -463 465 0
-465 466 0
-447 466 0
465 447 -466 0
45 126 -469 0
-45 126 469 0
45 -126 469 0
-45 -126 -469 0
469 466 -207 0
-469 466 207 0
469 -466 207 0
-469 -466 -207 0
466 -470 0
469 -470 0
-466 -469 470 0
126 -471 0
45 -471 0
-126 -45 471 0
-470 468 0
-471 468 0
470 471 -468 0
46 127 -473 0
-46 127 473 0
46 -127 473 0
-46 -127 -473 0
473 468 -208 0
-473 468 208 0
473 -468 208 0
-473 -468 -208 0
468 -474 0
473 -474 0
-468 -473 474 0
127 -475 0
46 -475 0
-127 -46 475 0
-474 472 0
-475 472 0
474 475 -472 0
47 128 -477 0
-47 128 477 0
47 -128 477 0
-47 -128 -477 0
477 472 -209 0
-477 472 209 0
477 -472 209 0
-477 -472 -209 0
472 -478 0
477 -478 0
-472 -477 478 0
128 -479 0
47 -479 0
-128 -47 479 0
-478 476 0
-479 476 0
478 479 -476 0
48 129 -480 0
-48 129 480 0
48 -129 480 0
-48 -129 -480 0
480 476 -210 0
-480 476 210 0
480 -476 210 0
-480 -476 -210 0
476 -481 0
480 -481 0
-476 -480 481 0
129 -482 0
48 -482 0
-129 -48 482 0
-481 467 0
-482 467 0
481 482 -467 0
469 -483 0
473 -483 0
477 -483 0
480 -483 0
-469 -473 -477 -480 483 0
482 -484 0
-482 484 0
466 -485 0
483 -485 0
-466 -483 485 0
-485 486 0
-467 486 0
485 467 -486 0
49 130 -489 0
-49 130 489 0
49 -130 489 0
-49 -130 -489 0
489 486 -211 0
-489 486 211 0
489 -486 211 0
-489 -486 -211 0
486 -490 0
489 -490 0
-486 -489 490 0
130 -491 0
49 -491 0
-130 -49 491 0
-490 488 0
-491 488 0
490 491 -488 0
50 131 -493 0
-50 131 493 0
50 -131 493 0
-50 -131 -493 0
493 488 -212 0
-493 488 212 0
493 -488 212 0
-493 -488 -212 0
488 -494 0
493 -494 0
-488 -493 494 0
131 -495 0
50 -495 0
-131 -50 495 0
-494 492 0
-495 492 0
494 495 -492 0
51 132 -497 0
-51 132 497 0
51 -132 497 0
-51 -132 -497 0
497 492 -213 0
-497 492 213 0
497 -492 213 0
-497 -492 -213 0
492 -498 0
497 -498 0
-492 -497 498 0
132 -499 0
51 -499 0
-132 -51 499 0
-498 496 0
-499 496 0
498 499 -496 0
52 133 -500 0
-52 133 500 0
52 -133 500 0
-52 -133 -500 0
500 496 -214 0
-500 496 214 0
500 -496 214 0
-500 -496 -214 0
496 -501 0
500 -501 0
-496 -500 501 0
133 -502 0
52 -502 0
-133 -52 502 0
-501 487 0
-502 487 0
501 502 -487 0
489 -503 0
493 -503 0
497 -503 0
500 -503 0
-489 -493 -497 -500 503 0
502 -504 0
-502 504 0
486 -505 0
503 -505 0
-486 -503 505 0
-505 506 0
-487 506 0
505 487 -506 0
53 134 -509 0
-53 134 509 0
53 -134 509 0
-53 -134 -509 0
509 506 -215 0
-509 506 215 0
509 -506 215 0
-509 -506 -215 0
506 -510 0
509 -510 0
-506 -509 510 0
134 -511 0
53 -511 0
-134 -53 511 0
-510 508 0
-511 508 0
510 511 -508 0
54 135 -513 0
-54 135 513 0
54 -135 513 0
-54 -135 -513 0
513 508 -216 0
-513 508 216 0
513 -508 216 0
-513 -508 -216 0
508 -514 0
513 -514 0
-508 -513 514 0
135 -515 0
54 -515 0
-135 -54 515 0
-514 512 0
-515 512 0
514 515 -512 0
55 136 -517 0
-55 136 517 0
55 -136 517 0
-55 -136 -517 0
517 512 -217 0
-517 512 217 0
517 -512 217 0
-517 -512 -217 0
512 -518 0
517 -518 0
-512 -517 518 0
136 -519 0
55 -519 0
-136 -55 519 0
-518 516 0
-519 516 0
518 519 -516 0
56 137 -520 0
-56 137 520 0
56 -137 520 0
-56 -137 -520 0
520 516 -218 0
-520 516 218 0
520 -516 218 0
-520 -516 -218 0
516 -521 0
520 -521 0
-516 -520 521 0
137 -522 0
56 -522 0
-137 -56 522 0
-521 507 0
-522 507 0
521 522 -507 0
509 -523 0
513 -523 0
517 -523 0
520 -523 0
-509 -513 -517 -520 523 0
522 -524 0
-522 524 0
506 -525 0
523 -525 0
-506 -523 525 0
-525 526 0
-507 526 0
525 507 -526 0
57 138 -529 0
-57 138 529 0
57 -138 529 0
-57 -138 -529 0
529 526 -219 0
-529 526 219 0
529 -526 219 0
-529 -526 -219 0
526 -530 0
529 -530 0
-526 -529 530 0
138 -531 0
57 -531 0
-138 -57 531 0
-530 528 0
-531 528 0
530 531 -528 0
58 139 -533 0
-58 139 533 0
58 -139 533 0
-58 -139 -533 0
533 528 -220 0
-533 528 220 0
533 -528 220 0
-533 -528 -220 0
528 -534 0
533 -534 0
-528 -533 534 0
139 -535 0
58 -535 0
-139 -58 535 0
-534 532 0
-535 532 0
534 535 -532 0
59 140 -537 0
-59 140 537 0
59 -140 537 0
-59 -140 -537 0
537 532 -221 0
-537 532 221 0
537 -532 221 0
-537 -532 -221 0
532 -538 0
537 -538 0
-532 -537 538 0
140 -539 0
59 -539 0
-140 -59 539 0
-538 536 0
-539 536 0
538 539 -536 0
60 141 -540 0
-60 141 540 0
60 -141 540 0
-60 -141 -540 0
540 536 -222 0
-540 536 222 0
540 -536 222 0
-540 -536 -222 0
536 -541 0
540 -541 0
-536 -540 541 0
141 -542 0
60 -542 0
-141 -60 542 0
-541 527 0
-542 527 0
541 542 -527 0
529 -543 0
533 -543 0
537 -543 0
540 -543 0
-529 -533 -537 -540 543 0
542 -544 0
-542 544 0
526 -545 0
543 -545 0
-526 -543 545 0
-545 546 0
-527 546 0
545 527 -546 0
61 142 -549 0
-61 142 549 0
61 -142 549 0
-61 -142 -549 0
549 546 -223 0
-549 546 223 0
549 -546 223 0
-549 -546 -223 0
546 -550 0
549 -550 0
-546 -549 550 0
142 -551 0
61 -551 0
-142 -61 551 0
-550 548 0
-551 548 0
550 551 -548 0
62 143 -553 0
-62 143 553 0
62 -143 553 0
-62 -143 -553 0
553 548 -224 0
-553 548 224 0
553 -548 224 0
-553 -548 -224 0
548 -554 0
553 -554 0
-548 -553 554 0
143 -555 0
62 -555 0
-143 -62 555 0
-554 552 0
-555 552 0
554 555 -552 0
63 144 -557 0
-63 144 557 0
63 -144 557 0
-63 -144 -557 0
557 552 -225 0
-557 552 225 0
557 -552 225 0
-557 -552 -225 0
552 -558 0
557 -558 0
-552 -557 558 0
144 -559 0
63 -559 0
-144 -63 559 0
-558 556 0
-559 556 0
558 559 -556 0
64 145 -560 0
-64 145 560 0
64 -145 560 0
-64 -145 -560 0
560 556 -226 0
-560 556 226 0
560 -556 226 0
-560 -556 -226 0
556 -561 0
560 -561 0
-556 -560 561 0
145 -562 0
64 -562 0
-145 -64 562 0
-561 547 0
-562 547 0
561 562 -547 0
549 -563 0
553 -563 0
557 -563 0
560 -563 0
-549 -553 -557 -560 563 0
562 -564 0
-562 564 0
546 -565 0
563 -565 0
-546 -563 565 0
-565 566 0
-547 566 0
565 547 -566 0
65 146 -569 0
-65 146 569 0
65 -146 569 0
-65 -146 -569 0
569 566 -227 0
-569 566 227 0
569 -566 227 0
-569 -566 -227 0
566 -570 0
569 -570 0
-566 -569 570 0
146 -571 0
65 -571 0
-146 -65 571 0
-570 568 0
-571 568 0
570 571 -568 0
66 147 -573 0
-66 147 573 0
66 -147 573 0
-66 -147 -573 0
573 568 -228 0
-573 568 228 0
573 -568 228 0
-573 -568 -228 0
568 -574 0
573 -574 0
-568 -573 574 0
147 -575 0
66 -575 0
-147 -66 575 0
-574 572 0
-575 572 0
574 575 -572 0
67 148 -577 0
-67 148 577 0
67 -148 577 0
-67 -148 -577 0
577 572 -229 0
-577 572 229 0
577 -572 229 0
-577 -572 -229 0
572 -578 0
577 -578 0
-572 -577 578 0
148 -579 0
67 -579 0
-148 -67 579 0
-578 576 0
-579 576 0
578 579 -576 0
68 149 -580 0
-68 149 580 0
68 -149 580 0
-68 -149 -580 0
580 576 -230 0
-580 576 230 0
580 -576 230 0
-580 -576 -230 0
576 -581 0
580 -581 0
-576 -580 581 0
149 -582 0
68 -582 0
-149 -68 582 0
-581 567 0
-582 567 0
581 582 -567 0
569 -583 0
573 -583 0
577 -583 0
580 -583 0
-569 -573 -577 -580 583 0
582 -584 0
-582 584 0
566 -585 0
583 -585 0
-566 -583 585 0
-585 586 0
-567 586 0
585 567 -586 0
69 150 -589 0
-69 150 589 0
69 -150 589 0
-69 -150 -589 0
589 586 -231 0
-589 586 231 0
589 -586 231 0
-589 -586 -231 0
586 -590 0
589 -590 0
-586 -589 590 0
150 -591 0
69 -591 0
-150 -69 591 0
-590 588 0
-591 588 0
590 591 -588 0
70 151 -593 0
-70 151 593 0
70 -151 593 0
-70 -151 -593 0
593 588 -232 0
-593 588 232 0
593 -588 232 0
-593 -588 -232 0
588 -594 0
593 -594 0
-588 -593 594 0
151 -595 0
70 -595 0
-151 -70 595 0
-594 592 0
-595 592 0
594 595 -592 0
71 152 -597 0
-71 152 597 0
71 -152 597 0
-71 -152 -597 0
597 592 -233 0
-597 592 233 0
597 -592 233 0
-597 -592 -233 0
592 -598 0
597 -598 0
-592 -597 598 0
152 -599 0
71 -599 0
-152 -71 599 0
-598 596 0
-599 596 0
598 599 -596 0
72 153 -600 0
-72 153 600 0
72 -153 600 0
-72 -153 -600 0
600 596 -234 0
-600 596 234 0
600 -596 234 0
-600 -596 -234 0
596 -601 0
600 -601 0
-596 -600 601 0
153 -602 0
72 -602 0
-153 -72 602 0
-601 587 0
-602 587 0
601 602 -587 0
589 -603 0
593 -603 0
597 -603 0
600 -603 0
-589 -593 -597 -600 603 0
602 -604 0
-602 604 0
586 -605 0
603 -605 0
-586 -603 605 0
-605 606 0
-587 606 0
605 587 -606 0
73 154 -609 0
-73 154 609 0
73 -154 609 0
-73 -154 -609 0
609 606 -235 0
-609 606 235 0
609 -606 235 0
-609 -606 -235 0
606 -610 0
609 -610 0
-606 -609 610 0
154 -611 0
73 -611 0
-154 -73 611 0
-610 608 0
-611 608 0
610 611 -608 0
74 155 -613 0
-74 155 613 0
74 -155 613 0
-74 -155 -613 0
613 608 -236 0
-613 608 236 0
613 -608 236 0
-613 -608 -236 0
608 -614 0
613 -614 0
-608 -613 614 0
155 -615 0
74 -615 0
-155 -74 615 0
-614 612 0
-615 612 0
614 615 -612 0
75 156 -617 0
-75 156 617 0
75 -156 617 0
-75 -156 -617 0
617 612 -237 0
-617 612 237 0
617 -612 237 0
-617 -612 -237 0
612 -618 0
617 -618 0
-612 -617 618 0
156 -619 0
75 -619 0
-156 -75 619 0
-618 616 0
-619 616 0
618 619 -616 0
76 157 -620 0
-76 157 620 0
76 -157 620 0
-76 -157 -620 0
620 616 -238 0
-620 616 238 0
620 -616 238 0
-620 -616 -238 0
616 -621 0
620 -621 0
-616 -620 621 0
157 -622 0
76 -622 0
-157 -76 622 0
-621 607 0
-622 607 0
621 622 -607 0
609 -623 0
613 -623 0
617 -623 0
620 -623 0
-609 -613 -617 -620 623 0
622 -624 0
-622 624 0
606 -625 0
623 -625 0
-606 -623 625 0
-625 626 0
-607 626 0
625 607 -626 0
77 158 -629 0
-77 158 629 0
77 -158 629 0
-77 -158 -629 0
629 626 -239 0
-629 626 239 0
629 -626 239 0
-629 -626 -239 0
626 -630 0
629 -630 0
-626 -629 630 0
158 -631 0
77 -631 0
-158 -77 631 0
-630 628 0
-631 628 0
630 631 -628 0
78 159 -633 0
-78 159 633 0
78 -159 633 0
-78 -159 -633 0
633 628 -240 0
-633 628 240 0
633 -628 240 0
-633 -628 -240 0
628 -634 0
633 -634 0
-628 -633 634 0
159 -635 0
78 -635 0
-159 -78 635 0
-634 632 0
-635 632 0
634 635 -632 0
79 160 -637 0
-79 160 637 0
79 -160 637 0
-79 -160 -637 0
637 632 -241 0
-637 632 241 0
637 -632 241 0
-637 -632 -241 0
632 -638 0
637 -638 0
-632 -637 638 0
160 -639 0
79 -639 0
-160 -79 639 0
-638 636 0
-639 636 0
638 639 -636 0
80 161 -640 0
-80 161 640 0
80 -161 640 0
-80 -161 -640 0
640 636 -242 0
-640 636 242 0
640 -636 242 0
-640 -636 -242 0
636 -641 0
640 -641 0
-636 -640 641 0
161 -642 0
80 -642 0
-161 -80 642 0
-641 627 0
-642 627 0
641 642 -627 0
629 -643 0
633 -643 0
637 -643 0
640 -643 0
-629 -633 -637 -640 643 0
642 -644 0
-642 644 0
626 -645 0
643 -645 0
-626 -643 645 0
-645 646 0
-627 646 0
645 627 -646 0
81 162 -648 0
-81 162 648 0
81 -162 648 0
-81 -162 -648 0
648 646 -243 0
-648 646 243 0
648 -646 243 0
-648 -646 -243 0
646 -649 0
648 -649 0
-646 -648 649 0
162 -650 0
81 -650 0
-162 -81 650 0
-649 647 0
-650 647 0
649 650 -647 0
648 -651 0
-648 651 0
650 -652 0
-650 652 0
646 -653 0
651 -653 0
-646 -651 653 0
-653 654 0
-647 654 0
653 647 -654 0
654 -244 0
-654 244 0
